\ Model Grouping-Optimization
\ LP format - for model browsing. Use MPS format to capture full model detail.
Minimize
  100 group[0] + 100 group[1] + 100 group[2] + group_lb[0] + group_lb[1]
   + group_lb[2] - group_ub[0] - group_ub[1] - group_ub[2]
Subject To
 R0: x[0,0,0] + x[1,0,0] + x[2,0,0] = 1
 R1: x[0,0,1] + x[1,0,1] + x[2,0,1] = 1
 R2: x[0,0,2] + x[1,0,2] + x[2,0,2] = 1
 R3: x[0,1,0] + x[1,1,0] + x[2,1,0] = 1
 R4: x[0,1,1] + x[1,1,1] + x[2,1,1] = 1
 R5: x[0,1,2] + x[1,1,2] + x[2,1,2] = 1
 R6: x[0,2,0] + x[1,2,0] + x[2,2,0] = 1
 R7: x[0,2,1] + x[1,2,1] + x[2,2,1] = 1
 R8: x[0,2,2] + x[1,2,2] + x[2,2,2] = 0
 R9: group_lb[0] - group_ub[0] + group_range[0] = 0
 R10: - x[0,0,0] + col_in_group[0,0] >= 0
 R11: - x[0,0,0] + level_in_group[0,0] >= 0
 R12: - x[0,0,0] + group[0] >= 0
 R13: - x[0,0,1] + col_in_group[0,0] >= 0
 R14: - x[0,0,1] + level_in_group[0,1] >= 0
 R15: - x[0,0,1] + group[0] >= 0
 R16: - x[0,0,2] + col_in_group[0,0] >= 0
 R17: - x[0,0,2] + level_in_group[0,2] >= 0
 R18: - x[0,0,2] + group[0] >= 0
 R19: - x[0,1,0] + col_in_group[0,1] >= 0
 R20: - x[0,1,0] + level_in_group[0,0] >= 0
 R21: - x[0,1,0] + group[0] >= 0
 R22: - x[0,1,1] + col_in_group[0,1] >= 0
 R23: - x[0,1,1] + level_in_group[0,1] >= 0
 R24: - x[0,1,1] + group[0] >= 0
 R25: - x[0,1,2] + col_in_group[0,1] >= 0
 R26: - x[0,1,2] + level_in_group[0,2] >= 0
 R27: - x[0,1,2] + group[0] >= 0
 R28: - x[0,2,0] + col_in_group[0,2] >= 0
 R29: - x[0,2,0] + level_in_group[0,0] >= 0
 R30: - x[0,2,0] + group[0] >= 0
 R31: - x[0,2,1] + col_in_group[0,2] >= 0
 R32: - x[0,2,1] + level_in_group[0,1] >= 0
 R33: - x[0,2,1] + group[0] >= 0
 R34: - x[0,2,2] + col_in_group[0,2] >= 0
 R35: - x[0,2,2] + level_in_group[0,2] >= 0
 R36: - x[0,2,2] + group[0] >= 0
 R37: - group_ub[0] <= 0
 R38: - 5 level_in_group[0,0] - group_lb[0] >= -5
 R39: group_lb[0] + 5 Zl[0,0] >= 2
 R40: - group_lb[0] - 5 Zl[0,0] >= -6
 R41: - group_ub[0] + 5 Zu[0,0] >= 0
 R42: group_ub[0] - 5 Zu[0,0] >= -4
 R43: level_in_group[0,0] - Zu[0,0] - Zl[0,0] >= -1
 R44: - x[0,0,0] + col_in_group[0,0] + level_in_group[0,0] <= 1
 R45: - x[0,1,0] + col_in_group[0,1] + level_in_group[0,0] <= 1
 R46: - x[0,2,0] + col_in_group[0,2] + level_in_group[0,0] <= 1
 R47: level_in_group[0,1] - group_ub[0] <= 0
 R48: - 4 level_in_group[0,1] - group_lb[0] >= -5
 R49: group_lb[0] + 5 Zl[0,1] >= 3
 R50: - group_lb[0] - 5 Zl[0,1] >= -7
 R51: - group_ub[0] + 5 Zu[0,1] >= -1
 R52: group_ub[0] - 5 Zu[0,1] >= -3
 R53: level_in_group[0,1] - Zu[0,1] - Zl[0,1] >= -1
 R54: - x[0,0,1] + col_in_group[0,0] + level_in_group[0,1] <= 1
 R55: - x[0,1,1] + col_in_group[0,1] + level_in_group[0,1] <= 1
 R56: - x[0,2,1] + col_in_group[0,2] + level_in_group[0,1] <= 1
 R57: 2 level_in_group[0,2] - group_ub[0] <= 0
 R58: - 3 level_in_group[0,2] - group_lb[0] >= -5
 R59: group_lb[0] + 5 Zl[0,2] >= 4
 R60: - group_lb[0] - 5 Zl[0,2] >= -8
 R61: - group_ub[0] + 5 Zu[0,2] >= -2
 R62: group_ub[0] - 5 Zu[0,2] >= -2
 R63: level_in_group[0,2] - Zu[0,2] - Zl[0,2] >= -1
 R64: - x[0,0,2] + col_in_group[0,0] + level_in_group[0,2] <= 1
 R65: - x[0,1,2] + col_in_group[0,1] + level_in_group[0,2] <= 1
 R66: - x[0,2,2] + col_in_group[0,2] + level_in_group[0,2] <= 1
 R67: - group_ub[1] <= 0
 R68: - 5 level_in_group[1,0] - group_lb[1] >= -5
 R69: group_lb[1] + 5 Zl[1,0] >= 2
 R70: - group_lb[1] - 5 Zl[1,0] >= -6
 R71: - group_ub[1] + 5 Zu[1,0] >= 0
 R72: group_ub[1] - 5 Zu[1,0] >= -4
 R73: level_in_group[1,0] - Zu[1,0] - Zl[1,0] >= -1
 R74: - x[1,0,0] + col_in_group[1,0] + level_in_group[1,0] <= 1
 R75: - x[1,1,0] + col_in_group[1,1] + level_in_group[1,0] <= 1
 R76: - x[1,2,0] + col_in_group[1,2] + level_in_group[1,0] <= 1
 R77: level_in_group[1,1] - group_ub[1] <= 0
 R78: - 4 level_in_group[1,1] - group_lb[1] >= -5
 R79: group_lb[1] + 5 Zl[1,1] >= 3
 R80: - group_lb[1] - 5 Zl[1,1] >= -7
 R81: - group_ub[1] + 5 Zu[1,1] >= -1
 R82: group_ub[1] - 5 Zu[1,1] >= -3
 R83: level_in_group[1,1] - Zu[1,1] - Zl[1,1] >= -1
 R84: - x[1,0,1] + col_in_group[1,0] + level_in_group[1,1] <= 1
 R85: - x[1,1,1] + col_in_group[1,1] + level_in_group[1,1] <= 1
 R86: - x[1,2,1] + col_in_group[1,2] + level_in_group[1,1] <= 1
 R87: 2 level_in_group[1,2] - group_ub[1] <= 0
 R88: - 3 level_in_group[1,2] - group_lb[1] >= -5
 R89: group_lb[1] + 5 Zl[1,2] >= 4
 R90: - group_lb[1] - 5 Zl[1,2] >= -8
 R91: - group_ub[1] + 5 Zu[1,2] >= -2
 R92: group_ub[1] - 5 Zu[1,2] >= -2
 R93: level_in_group[1,2] - Zu[1,2] - Zl[1,2] >= -1
 R94: - x[1,0,2] + col_in_group[1,0] + level_in_group[1,2] <= 1
 R95: - x[1,1,2] + col_in_group[1,1] + level_in_group[1,2] <= 1
 R96: - x[1,2,2] + col_in_group[1,2] + level_in_group[1,2] <= 1
 R97: - group_ub[2] <= 0
 R98: - 5 level_in_group[2,0] - group_lb[2] >= -5
 R99: group_lb[2] + 5 Zl[2,0] >= 2
 R100: - group_lb[2] - 5 Zl[2,0] >= -6
 R101: - group_ub[2] + 5 Zu[2,0] >= 0
 R102: group_ub[2] - 5 Zu[2,0] >= -4
 R103: level_in_group[2,0] - Zu[2,0] - Zl[2,0] >= -1
 R104: - x[2,0,0] + col_in_group[2,0] + level_in_group[2,0] <= 1
 R105: - x[2,1,0] + col_in_group[2,1] + level_in_group[2,0] <= 1
 R106: - x[2,2,0] + col_in_group[2,2] + level_in_group[2,0] <= 1
 R107: level_in_group[2,1] - group_ub[2] <= 0
 R108: - 4 level_in_group[2,1] - group_lb[2] >= -5
 R109: group_lb[2] + 5 Zl[2,1] >= 3
 R110: - group_lb[2] - 5 Zl[2,1] >= -7
 R111: - group_ub[2] + 5 Zu[2,1] >= -1
 R112: group_ub[2] - 5 Zu[2,1] >= -3
 R113: level_in_group[2,1] - Zu[2,1] - Zl[2,1] >= -1
 R114: - x[2,0,1] + col_in_group[2,0] + level_in_group[2,1] <= 1
 R115: - x[2,1,1] + col_in_group[2,1] + level_in_group[2,1] <= 1
 R116: - x[2,2,1] + col_in_group[2,2] + level_in_group[2,1] <= 1
 R117: 2 level_in_group[2,2] - group_ub[2] <= 0
 R118: - 3 level_in_group[2,2] - group_lb[2] >= -5
 R119: group_lb[2] + 5 Zl[2,2] >= 4
 R120: - group_lb[2] - 5 Zl[2,2] >= -8
 R121: - group_ub[2] + 5 Zu[2,2] >= -2
 R122: group_ub[2] - 5 Zu[2,2] >= -2
 R123: level_in_group[2,2] - Zu[2,2] - Zl[2,2] >= -1
 R124: - x[2,0,2] + col_in_group[2,0] + level_in_group[2,2] <= 1
 R125: - x[2,1,2] + col_in_group[2,1] + level_in_group[2,2] <= 1
 R126: - x[2,2,2] + col_in_group[2,2] + level_in_group[2,2] <= 1
 R127: group_lb[1] - group_ub[1] + group_range[1] = 0
 R128: - x[1,0,0] + col_in_group[1,0] >= 0
 R129: - x[1,0,0] + level_in_group[1,0] >= 0
 R130: - x[1,0,0] + group[1] >= 0
 R131: - x[1,0,1] + col_in_group[1,0] >= 0
 R132: - x[1,0,1] + level_in_group[1,1] >= 0
 R133: - x[1,0,1] + group[1] >= 0
 R134: - x[1,0,2] + col_in_group[1,0] >= 0
 R135: - x[1,0,2] + level_in_group[1,2] >= 0
 R136: - x[1,0,2] + group[1] >= 0
 R137: - x[1,1,0] + col_in_group[1,1] >= 0
 R138: - x[1,1,0] + level_in_group[1,0] >= 0
 R139: - x[1,1,0] + group[1] >= 0
 R140: - x[1,1,1] + col_in_group[1,1] >= 0
 R141: - x[1,1,1] + level_in_group[1,1] >= 0
 R142: - x[1,1,1] + group[1] >= 0
 R143: - x[1,1,2] + col_in_group[1,1] >= 0
 R144: - x[1,1,2] + level_in_group[1,2] >= 0
 R145: - x[1,1,2] + group[1] >= 0
 R146: - x[1,2,0] + col_in_group[1,2] >= 0
 R147: - x[1,2,0] + level_in_group[1,0] >= 0
 R148: - x[1,2,0] + group[1] >= 0
 R149: - x[1,2,1] + col_in_group[1,2] >= 0
 R150: - x[1,2,1] + level_in_group[1,1] >= 0
 R151: - x[1,2,1] + group[1] >= 0
 R152: - x[1,2,2] + col_in_group[1,2] >= 0
 R153: - x[1,2,2] + level_in_group[1,2] >= 0
 R154: - x[1,2,2] + group[1] >= 0
 R155: - group_ub[0] <= 0
 R156: - 5 level_in_group[0,0] - group_lb[0] >= -5
 R157: group_lb[0] + 5 Zl[0,0] >= 2
 R158: - group_lb[0] - 5 Zl[0,0] >= -6
 R159: - group_ub[0] + 5 Zu[0,0] >= 0
 R160: group_ub[0] - 5 Zu[0,0] >= -4
 R161: level_in_group[0,0] - Zu[0,0] - Zl[0,0] >= -1
 R162: - x[0,0,0] + col_in_group[0,0] + level_in_group[0,0] <= 1
 R163: - x[0,1,0] + col_in_group[0,1] + level_in_group[0,0] <= 1
 R164: - x[0,2,0] + col_in_group[0,2] + level_in_group[0,0] <= 1
 R165: level_in_group[0,1] - group_ub[0] <= 0
 R166: - 4 level_in_group[0,1] - group_lb[0] >= -5
 R167: group_lb[0] + 5 Zl[0,1] >= 3
 R168: - group_lb[0] - 5 Zl[0,1] >= -7
 R169: - group_ub[0] + 5 Zu[0,1] >= -1
 R170: group_ub[0] - 5 Zu[0,1] >= -3
 R171: level_in_group[0,1] - Zu[0,1] - Zl[0,1] >= -1
 R172: - x[0,0,1] + col_in_group[0,0] + level_in_group[0,1] <= 1
 R173: - x[0,1,1] + col_in_group[0,1] + level_in_group[0,1] <= 1
 R174: - x[0,2,1] + col_in_group[0,2] + level_in_group[0,1] <= 1
 R175: 2 level_in_group[0,2] - group_ub[0] <= 0
 R176: - 3 level_in_group[0,2] - group_lb[0] >= -5
 R177: group_lb[0] + 5 Zl[0,2] >= 4
 R178: - group_lb[0] - 5 Zl[0,2] >= -8
 R179: - group_ub[0] + 5 Zu[0,2] >= -2
 R180: group_ub[0] - 5 Zu[0,2] >= -2
 R181: level_in_group[0,2] - Zu[0,2] - Zl[0,2] >= -1
 R182: - x[0,0,2] + col_in_group[0,0] + level_in_group[0,2] <= 1
 R183: - x[0,1,2] + col_in_group[0,1] + level_in_group[0,2] <= 1
 R184: - x[0,2,2] + col_in_group[0,2] + level_in_group[0,2] <= 1
 R185: - group_ub[1] <= 0
 R186: - 5 level_in_group[1,0] - group_lb[1] >= -5
 R187: group_lb[1] + 5 Zl[1,0] >= 2
 R188: - group_lb[1] - 5 Zl[1,0] >= -6
 R189: - group_ub[1] + 5 Zu[1,0] >= 0
 R190: group_ub[1] - 5 Zu[1,0] >= -4
 R191: level_in_group[1,0] - Zu[1,0] - Zl[1,0] >= -1
 R192: - x[1,0,0] + col_in_group[1,0] + level_in_group[1,0] <= 1
 R193: - x[1,1,0] + col_in_group[1,1] + level_in_group[1,0] <= 1
 R194: - x[1,2,0] + col_in_group[1,2] + level_in_group[1,0] <= 1
 R195: level_in_group[1,1] - group_ub[1] <= 0
 R196: - 4 level_in_group[1,1] - group_lb[1] >= -5
 R197: group_lb[1] + 5 Zl[1,1] >= 3
 R198: - group_lb[1] - 5 Zl[1,1] >= -7
 R199: - group_ub[1] + 5 Zu[1,1] >= -1
 R200: group_ub[1] - 5 Zu[1,1] >= -3
 R201: level_in_group[1,1] - Zu[1,1] - Zl[1,1] >= -1
 R202: - x[1,0,1] + col_in_group[1,0] + level_in_group[1,1] <= 1
 R203: - x[1,1,1] + col_in_group[1,1] + level_in_group[1,1] <= 1
 R204: - x[1,2,1] + col_in_group[1,2] + level_in_group[1,1] <= 1
 R205: 2 level_in_group[1,2] - group_ub[1] <= 0
 R206: - 3 level_in_group[1,2] - group_lb[1] >= -5
 R207: group_lb[1] + 5 Zl[1,2] >= 4
 R208: - group_lb[1] - 5 Zl[1,2] >= -8
 R209: - group_ub[1] + 5 Zu[1,2] >= -2
 R210: group_ub[1] - 5 Zu[1,2] >= -2
 R211: level_in_group[1,2] - Zu[1,2] - Zl[1,2] >= -1
 R212: - x[1,0,2] + col_in_group[1,0] + level_in_group[1,2] <= 1
 R213: - x[1,1,2] + col_in_group[1,1] + level_in_group[1,2] <= 1
 R214: - x[1,2,2] + col_in_group[1,2] + level_in_group[1,2] <= 1
 R215: - group_ub[2] <= 0
 R216: - 5 level_in_group[2,0] - group_lb[2] >= -5
 R217: group_lb[2] + 5 Zl[2,0] >= 2
 R218: - group_lb[2] - 5 Zl[2,0] >= -6
 R219: - group_ub[2] + 5 Zu[2,0] >= 0
 R220: group_ub[2] - 5 Zu[2,0] >= -4
 R221: level_in_group[2,0] - Zu[2,0] - Zl[2,0] >= -1
 R222: - x[2,0,0] + col_in_group[2,0] + level_in_group[2,0] <= 1
 R223: - x[2,1,0] + col_in_group[2,1] + level_in_group[2,0] <= 1
 R224: - x[2,2,0] + col_in_group[2,2] + level_in_group[2,0] <= 1
 R225: level_in_group[2,1] - group_ub[2] <= 0
 R226: - 4 level_in_group[2,1] - group_lb[2] >= -5
 R227: group_lb[2] + 5 Zl[2,1] >= 3
 R228: - group_lb[2] - 5 Zl[2,1] >= -7
 R229: - group_ub[2] + 5 Zu[2,1] >= -1
 R230: group_ub[2] - 5 Zu[2,1] >= -3
 R231: level_in_group[2,1] - Zu[2,1] - Zl[2,1] >= -1
 R232: - x[2,0,1] + col_in_group[2,0] + level_in_group[2,1] <= 1
 R233: - x[2,1,1] + col_in_group[2,1] + level_in_group[2,1] <= 1
 R234: - x[2,2,1] + col_in_group[2,2] + level_in_group[2,1] <= 1
 R235: 2 level_in_group[2,2] - group_ub[2] <= 0
 R236: - 3 level_in_group[2,2] - group_lb[2] >= -5
 R237: group_lb[2] + 5 Zl[2,2] >= 4
 R238: - group_lb[2] - 5 Zl[2,2] >= -8
 R239: - group_ub[2] + 5 Zu[2,2] >= -2
 R240: group_ub[2] - 5 Zu[2,2] >= -2
 R241: level_in_group[2,2] - Zu[2,2] - Zl[2,2] >= -1
 R242: - x[2,0,2] + col_in_group[2,0] + level_in_group[2,2] <= 1
 R243: - x[2,1,2] + col_in_group[2,1] + level_in_group[2,2] <= 1
 R244: - x[2,2,2] + col_in_group[2,2] + level_in_group[2,2] <= 1
 R245: group_lb[2] - group_ub[2] + group_range[2] = 0
 R246: - x[2,0,0] + col_in_group[2,0] >= 0
 R247: - x[2,0,0] + level_in_group[2,0] >= 0
 R248: - x[2,0,0] + group[2] >= 0
 R249: - x[2,0,1] + col_in_group[2,0] >= 0
 R250: - x[2,0,1] + level_in_group[2,1] >= 0
 R251: - x[2,0,1] + group[2] >= 0
 R252: - x[2,0,2] + col_in_group[2,0] >= 0
 R253: - x[2,0,2] + level_in_group[2,2] >= 0
 R254: - x[2,0,2] + group[2] >= 0
 R255: - x[2,1,0] + col_in_group[2,1] >= 0
 R256: - x[2,1,0] + level_in_group[2,0] >= 0
 R257: - x[2,1,0] + group[2] >= 0
 R258: - x[2,1,1] + col_in_group[2,1] >= 0
 R259: - x[2,1,1] + level_in_group[2,1] >= 0
 R260: - x[2,1,1] + group[2] >= 0
 R261: - x[2,1,2] + col_in_group[2,1] >= 0
 R262: - x[2,1,2] + level_in_group[2,2] >= 0
 R263: - x[2,1,2] + group[2] >= 0
 R264: - x[2,2,0] + col_in_group[2,2] >= 0
 R265: - x[2,2,0] + level_in_group[2,0] >= 0
 R266: - x[2,2,0] + group[2] >= 0
 R267: - x[2,2,1] + col_in_group[2,2] >= 0
 R268: - x[2,2,1] + level_in_group[2,1] >= 0
 R269: - x[2,2,1] + group[2] >= 0
 R270: - x[2,2,2] + col_in_group[2,2] >= 0
 R271: - x[2,2,2] + level_in_group[2,2] >= 0
 R272: - x[2,2,2] + group[2] >= 0
 R273: - group_ub[0] <= 0
 R274: - 5 level_in_group[0,0] - group_lb[0] >= -5
 R275: group_lb[0] + 5 Zl[0,0] >= 2
 R276: - group_lb[0] - 5 Zl[0,0] >= -6
 R277: - group_ub[0] + 5 Zu[0,0] >= 0
 R278: group_ub[0] - 5 Zu[0,0] >= -4
 R279: level_in_group[0,0] - Zu[0,0] - Zl[0,0] >= -1
 R280: - x[0,0,0] + col_in_group[0,0] + level_in_group[0,0] <= 1
 R281: - x[0,1,0] + col_in_group[0,1] + level_in_group[0,0] <= 1
 R282: - x[0,2,0] + col_in_group[0,2] + level_in_group[0,0] <= 1
 R283: level_in_group[0,1] - group_ub[0] <= 0
 R284: - 4 level_in_group[0,1] - group_lb[0] >= -5
 R285: group_lb[0] + 5 Zl[0,1] >= 3
 R286: - group_lb[0] - 5 Zl[0,1] >= -7
 R287: - group_ub[0] + 5 Zu[0,1] >= -1
 R288: group_ub[0] - 5 Zu[0,1] >= -3
 R289: level_in_group[0,1] - Zu[0,1] - Zl[0,1] >= -1
 R290: - x[0,0,1] + col_in_group[0,0] + level_in_group[0,1] <= 1
 R291: - x[0,1,1] + col_in_group[0,1] + level_in_group[0,1] <= 1
 R292: - x[0,2,1] + col_in_group[0,2] + level_in_group[0,1] <= 1
 R293: 2 level_in_group[0,2] - group_ub[0] <= 0
 R294: - 3 level_in_group[0,2] - group_lb[0] >= -5
 R295: group_lb[0] + 5 Zl[0,2] >= 4
 R296: - group_lb[0] - 5 Zl[0,2] >= -8
 R297: - group_ub[0] + 5 Zu[0,2] >= -2
 R298: group_ub[0] - 5 Zu[0,2] >= -2
 R299: level_in_group[0,2] - Zu[0,2] - Zl[0,2] >= -1
 R300: - x[0,0,2] + col_in_group[0,0] + level_in_group[0,2] <= 1
 R301: - x[0,1,2] + col_in_group[0,1] + level_in_group[0,2] <= 1
 R302: - x[0,2,2] + col_in_group[0,2] + level_in_group[0,2] <= 1
 R303: - group_ub[1] <= 0
 R304: - 5 level_in_group[1,0] - group_lb[1] >= -5
 R305: group_lb[1] + 5 Zl[1,0] >= 2
 R306: - group_lb[1] - 5 Zl[1,0] >= -6
 R307: - group_ub[1] + 5 Zu[1,0] >= 0
 R308: group_ub[1] - 5 Zu[1,0] >= -4
 R309: level_in_group[1,0] - Zu[1,0] - Zl[1,0] >= -1
 R310: - x[1,0,0] + col_in_group[1,0] + level_in_group[1,0] <= 1
 R311: - x[1,1,0] + col_in_group[1,1] + level_in_group[1,0] <= 1
 R312: - x[1,2,0] + col_in_group[1,2] + level_in_group[1,0] <= 1
 R313: level_in_group[1,1] - group_ub[1] <= 0
 R314: - 4 level_in_group[1,1] - group_lb[1] >= -5
 R315: group_lb[1] + 5 Zl[1,1] >= 3
 R316: - group_lb[1] - 5 Zl[1,1] >= -7
 R317: - group_ub[1] + 5 Zu[1,1] >= -1
 R318: group_ub[1] - 5 Zu[1,1] >= -3
 R319: level_in_group[1,1] - Zu[1,1] - Zl[1,1] >= -1
 R320: - x[1,0,1] + col_in_group[1,0] + level_in_group[1,1] <= 1
 R321: - x[1,1,1] + col_in_group[1,1] + level_in_group[1,1] <= 1
 R322: - x[1,2,1] + col_in_group[1,2] + level_in_group[1,1] <= 1
 R323: 2 level_in_group[1,2] - group_ub[1] <= 0
 R324: - 3 level_in_group[1,2] - group_lb[1] >= -5
 R325: group_lb[1] + 5 Zl[1,2] >= 4
 R326: - group_lb[1] - 5 Zl[1,2] >= -8
 R327: - group_ub[1] + 5 Zu[1,2] >= -2
 R328: group_ub[1] - 5 Zu[1,2] >= -2
 R329: level_in_group[1,2] - Zu[1,2] - Zl[1,2] >= -1
 R330: - x[1,0,2] + col_in_group[1,0] + level_in_group[1,2] <= 1
 R331: - x[1,1,2] + col_in_group[1,1] + level_in_group[1,2] <= 1
 R332: - x[1,2,2] + col_in_group[1,2] + level_in_group[1,2] <= 1
 R333: - group_ub[2] <= 0
 R334: - 5 level_in_group[2,0] - group_lb[2] >= -5
 R335: group_lb[2] + 5 Zl[2,0] >= 2
 R336: - group_lb[2] - 5 Zl[2,0] >= -6
 R337: - group_ub[2] + 5 Zu[2,0] >= 0
 R338: group_ub[2] - 5 Zu[2,0] >= -4
 R339: level_in_group[2,0] - Zu[2,0] - Zl[2,0] >= -1
 R340: - x[2,0,0] + col_in_group[2,0] + level_in_group[2,0] <= 1
 R341: - x[2,1,0] + col_in_group[2,1] + level_in_group[2,0] <= 1
 R342: - x[2,2,0] + col_in_group[2,2] + level_in_group[2,0] <= 1
 R343: level_in_group[2,1] - group_ub[2] <= 0
 R344: - 4 level_in_group[2,1] - group_lb[2] >= -5
 R345: group_lb[2] + 5 Zl[2,1] >= 3
 R346: - group_lb[2] - 5 Zl[2,1] >= -7
 R347: - group_ub[2] + 5 Zu[2,1] >= -1
 R348: group_ub[2] - 5 Zu[2,1] >= -3
 R349: level_in_group[2,1] - Zu[2,1] - Zl[2,1] >= -1
 R350: - x[2,0,1] + col_in_group[2,0] + level_in_group[2,1] <= 1
 R351: - x[2,1,1] + col_in_group[2,1] + level_in_group[2,1] <= 1
 R352: - x[2,2,1] + col_in_group[2,2] + level_in_group[2,1] <= 1
 R353: 2 level_in_group[2,2] - group_ub[2] <= 0
 R354: - 3 level_in_group[2,2] - group_lb[2] >= -5
 R355: group_lb[2] + 5 Zl[2,2] >= 4
 R356: - group_lb[2] - 5 Zl[2,2] >= -8
 R357: - group_ub[2] + 5 Zu[2,2] >= -2
 R358: group_ub[2] - 5 Zu[2,2] >= -2
 R359: level_in_group[2,2] - Zu[2,2] - Zl[2,2] >= -1
 R360: - x[2,0,2] + col_in_group[2,0] + level_in_group[2,2] <= 1
 R361: - x[2,1,2] + col_in_group[2,1] + level_in_group[2,2] <= 1
 R362: - x[2,2,2] + col_in_group[2,2] + level_in_group[2,2] <= 1
Bounds
 group_lb[0] <= 3
 group_lb[1] <= 3
 group_lb[2] <= 3
 group_ub[0] <= 3
 group_ub[1] <= 3
 group_ub[2] <= 3
 group_range[0] <= 3
 group_range[1] <= 3
 group_range[2] <= 3
Binaries
 x[0,0,0] x[1,0,0] x[2,0,0] x[0,1,0] x[1,1,0] x[2,1,0] x[0,2,0] x[1,2,0]
 x[2,2,0] x[0,0,1] x[1,0,1] x[2,0,1] x[0,1,1] x[1,1,1] x[2,1,1] x[0,2,1]
 x[1,2,1] x[2,2,1] x[0,0,2] x[1,0,2] x[2,0,2] x[0,1,2] x[1,1,2] x[2,1,2]
 x[0,2,2] x[1,2,2] x[2,2,2] group[0] group[1] group[2] col_in_group[0,0]
 col_in_group[0,1] col_in_group[0,2] col_in_group[1,0] col_in_group[1,1]
 col_in_group[1,2] col_in_group[2,0] col_in_group[2,1] col_in_group[2,2]
 level_in_group[0,0] level_in_group[0,1] level_in_group[0,2]
 level_in_group[1,0] level_in_group[1,1] level_in_group[1,2]
 level_in_group[2,0] level_in_group[2,1] level_in_group[2,2] Zu[0,0]
 Zu[0,1] Zu[0,2] Zu[1,0] Zu[1,1] Zu[1,2] Zu[2,0] Zu[2,1] Zu[2,2] Zl[0,0]
 Zl[0,1] Zl[0,2] Zl[1,0] Zl[1,1] Zl[1,2] Zl[2,0] Zl[2,1] Zl[2,2]
Generals
 group_lb[0] group_lb[1] group_lb[2] group_ub[0] group_ub[1] group_ub[2]
 group_range[0] group_range[1] group_range[2]
End
